n_res = 4;
rc = [ 0, 0, 0, 0 ];
n_tasks = 30;
d = [ 3, 4, 2, 10, 9, 5, 3, 9, 5, 7, 6, 1, 9, 4, 8, 9, 9, 4, 2, 4, 2, 5, 4, 9, 1, 10, 8, 7, 7, 8 ];
rr = [| 0, 0, 0, 0, 0, 0, 0, 0, 0, 0, 0, 0, 0, 0, 0, 0, 0, 0, 0, 0, 0, 0, 0, 0, 0, 0, 0, 0, 0, 0
      | 0, 0, 0, 0, 0, 0, 0, 0, 0, 0, 0, 0, 0, 0, 0, 0, 0, 0, 0, 0, 0, 0, 0, 0, 0, 0, 0, 0, 0, 0
      | 0, 0, 0, 0, 0, 0, 0, 0, 0, 0, 0, 0, 0, 0, 0, 0, 0, 0, 0, 0, 0, 0, 0, 0, 0, 0, 0, 0, 0, 0
      | 0, 0, 0, 0, 0, 0, 0, 0, 0, 0, 0, 0, 0, 0, 0, 0, 0, 0, 0, 0, 0, 0, 0, 0, 0, 0, 0, 0, 0, 0 |];
suc = [ { 4, 20, 25 },
       { 15 },
       { 13 },
       { 5, 7, 9 },
       { 6, 8, 11 },
       { 10, 16, 17 },
       { 19 },
       { 10, 14 },
       { 11, 27 },
       { 12 },
       { 14, 18 },
       { 29 },
       { 22 },
       { 29 },
       { 17 },
       { 23 },
       { 23 },
       { 21 },
       { 26 },
       { 23, 26, 30 },
       { 30 },
       { 26, 27 },
       { 24 },
       { 28 },
       { 29, 30 },
       { 28 },
       { 28 },
       {  },
       {  },
       {  } ];
